25° run output:
{
    "Function": "kroB750.tsp",
    "Problem dimension": [
        56,
        220,
        136,
        276,
        301,
        711,
        538,
        672,
        209,
        564,
        182,
        423,
        417,
        491,
        141,
        161,
        111,
        738,
        53,
        397,
        584,
        82,
        659,
        336,
        251,
        68,
        300,
        587,
        586,
        551,
        389,
        689,
        229,
        611,
        202,
        390,
        33,
        735,
        323,
        28,
        504,
        454,
        21,
        172,
        633,
        455,
        413,
        537,
        507,
        549,
        257,
        589,
        414,
        298,
        376,
        550,
        107,
        647,
        406,
        378,
        703,
        581,
        708,
        241,
        441,
        23,
        425,
        117,
        349,
        250,
        574,
        153,
        73,
        733,
        122,
        561,
        222,
        150,
        540,
        177,
        168,
        391,
        643,
        543,
        356,
        484,
        45,
        128,
        601,
        179,
        596,
        326,
        339,
        629,
        42,
        181,
        433,
        392,
        184,
        420,
        130,
        567,
        306,
        707,
        129,
        460,
        69,
        620,
        410,
        252,
        37,
        470,
        228,
        558,
        627,
        351,
        180,
        482,
        224,
        31,
        723,
        372,
        369,
        171,
        231,
        458,
        583,
        438,
        97,
        314,
        693,
        144,
        715,
        278,
        612,
        12,
        147,
        368,
        487,
        610,
        46,
        254,
        115,
        66,
        114,
        233,
        162,
        429,
        743,
        70,
        60,
        556,
        401,
        120,
        477,
        125,
        593,
        124,
        385,
        380,
        36,
        739,
        557,
        467,
        87,
        345,
        90,
        466,
        127,
        236,
        5,
        546,
        94,
        427,
        118,
        206,
        170,
        360,
        261,
        446,
        535,
        542,
        364,
        11,
        92,
        39,
        662,
        267,
        230,
        48,
        594,
        335,
        149,
        169,
        110,
        324,
        49,
        317,
        198,
        18,
        478,
        163,
        508,
        474,
        657,
        661,
        531,
        526,
        219,
        358,
        27,
        580,
        450,
        430,
        221,
        101,
        576,
        741,
        599,
        683,
        398,
        268,
        346,
        737,
        685,
        486,
        628,
        523,
        622,
        93,
        361,
        143,
        615,
        604,
        514,
        24,
        316,
        164,
        64,
        512,
        704,
        123,
        408,
        400,
        653,
        640,
        234,
        678,
        548,
        436,
        83,
        696,
        631,
        207,
        216,
        502,
        319,
        479,
        572,
        152,
        265,
        17,
        453,
        571,
        636,
        190,
        705,
        239,
        472,
        78,
        187,
        266,
        493,
        199,
        506,
        732,
        716,
        396,
        681,
        393,
        247,
        431,
        382,
        373,
        25,
        688,
        736,
        167,
        333,
        642,
        223,
        501,
        246,
        489,
        95,
        100,
        285,
        651,
        578,
        498,
        637,
        713,
        148,
        242,
        102,
        541,
        65,
        173,
        582,
        521,
        494,
        387,
        381,
        334,
        255,
        650,
        281,
        299,
        362,
        658,
        626,
        259,
        623,
        195,
        15,
        605,
        248,
        727,
        371,
        545,
        189,
        4,
        445,
        19,
        274,
        139,
        341,
        156,
        213,
        322,
        428,
        529,
        505,
        725,
        462,
        519,
        641,
        534,
        103,
        670,
        363,
        734,
        260,
        243,
        418,
        338,
        253,
        291,
        370,
        648,
        395,
        256,
        588,
        475,
        166,
        157,
        473,
        283,
        404,
        91,
        159,
        16,
        621,
        188,
        200,
        133,
        312,
        717,
        575,
        201,
        483,
        176,
        192,
        619,
        205,
        694,
        215,
        343,
        625,
        726,
        365,
        50,
        62,
        332,
        403,
        310,
        352,
        724,
        40,
        664,
        720,
        525,
        555,
        375,
        747,
        562,
        315,
        297,
        399,
        563,
        527,
        443,
        668,
        697,
        32,
        714,
        20,
        635,
        728,
        744,
        191,
        296,
        573,
        692,
        518,
        280,
        405,
        214,
        686,
        355,
        72,
        337,
        264,
        468,
        591,
        613,
        353,
        742,
        680,
        539,
        698,
        666,
        511,
        632,
        0,
        354,
        98,
        424,
        204,
        500,
        447,
        464,
        618,
        340,
        131,
        687,
        331,
        740,
        374,
        656,
        695,
        675,
        667,
        624,
        217,
        174,
        440,
        646,
        196,
        412,
        158,
        185,
        41,
        492,
        544,
        237,
        238,
        151,
        655,
        288,
        79,
        528,
        47,
        14,
        676,
        669,
        569,
        456,
        746,
        305,
        684,
        457,
        480,
        710,
        570,
        481,
        702,
        449,
        121,
        293,
        459,
        96,
        476,
        435,
        329,
        595,
        85,
        407,
        497,
        59,
        663,
        347,
        469,
        84,
        313,
        344,
        272,
        13,
        302,
        597,
        644,
        10,
        140,
        52,
        452,
        560,
        104,
        639,
        212,
        292,
        709,
        112,
        269,
        138,
        226,
        579,
        533,
        559,
        155,
        145,
        113,
        465,
        609,
        600,
        284,
        416,
        603,
        722,
        677,
        673,
        499,
        89,
        9,
        379,
        524,
        258,
        208,
        357,
        35,
        366,
        451,
        461,
        712,
        553,
        7,
        175,
        565,
        547,
        106,
        649,
        273,
        321,
        88,
        630,
        510,
        421,
        286,
        488,
        463,
        270,
        203,
        146,
        509,
        634,
        244,
        294,
        652,
        99,
        532,
        367,
        197,
        513,
        660,
        729,
        674,
        730,
        55,
        1,
        606,
        2,
        350,
        183,
        227,
        325,
        598,
        263,
        496,
        77,
        105,
        490,
        6,
        26,
        749,
        617,
        135,
        67,
        193,
        309,
        132,
        503,
        235,
        137,
        590,
        671,
        218,
        592,
        645,
        602,
        327,
        402,
        411,
        448,
        554,
        515,
        700,
        304,
        731,
        718,
        682,
        54,
        394,
        295,
        225,
        516,
        386,
        51,
        422,
        409,
        577,
        530,
        126,
        86,
        262,
        471,
        348,
        485,
        444,
        30,
        607,
        57,
        520,
        384,
        432,
        359,
        22,
        81,
        249,
        289,
        568,
        194,
        679,
        142,
        210,
        232,
        43,
        654,
        585,
        318,
        165,
        308,
        3,
        275,
        34,
        320,
        552,
        439,
        116,
        388,
        271,
        522,
        307,
        44,
        721,
        108,
        437,
        608,
        748,
        665,
        699,
        616,
        706,
        29,
        76,
        517,
        614,
        186,
        134,
        638,
        377,
        245,
        691,
        160,
        426,
        383,
        211,
        178,
        8,
        442,
        303,
        282,
        745,
        330,
        419,
        75,
        63,
        328,
        240,
        71,
        690,
        109,
        154,
        290,
        74,
        80,
        566,
        119,
        311,
        719,
        61,
        279,
        58,
        536,
        415,
        342,
        434,
        38,
        495,
        277,
        287,
        701
    ],
    "Global Optimum": 0,
    "Algorithm": "Genetic algorithm",
    "Parameters": {
        "population": 30,
        "offspring": 30,
        "mutation probability": 0.0013333333333333333,
        "crossover probability": 0.9
    },
    "Fitness": 943657,
    "Solution": [
        56,
        220,
        136,
        276,
        301,
        711,
        538,
        672,
        209,
        564,
        182,
        423,
        417,
        491,
        141,
        161,
        111,
        738,
        53,
        397,
        584,
        82,
        659,
        336,
        251,
        68,
        300,
        587,
        586,
        551,
        389,
        689,
        229,
        611,
        202,
        390,
        33,
        735,
        323,
        28,
        504,
        454,
        21,
        172,
        633,
        455,
        413,
        537,
        507,
        549,
        257,
        589,
        414,
        298,
        376,
        550,
        107,
        647,
        406,
        378,
        703,
        581,
        708,
        241,
        441,
        23,
        425,
        117,
        349,
        250,
        574,
        153,
        73,
        733,
        122,
        561,
        222,
        150,
        540,
        177,
        168,
        391,
        643,
        543,
        356,
        484,
        45,
        128,
        601,
        179,
        596,
        326,
        339,
        629,
        42,
        181,
        433,
        392,
        184,
        420,
        130,
        567,
        306,
        707,
        129,
        460,
        69,
        620,
        410,
        252,
        37,
        470,
        228,
        558,
        627,
        351,
        180,
        482,
        224,
        31,
        723,
        372,
        369,
        171,
        231,
        458,
        583,
        438,
        97,
        314,
        693,
        144,
        715,
        278,
        612,
        12,
        147,
        368,
        487,
        610,
        46,
        254,
        115,
        66,
        114,
        233,
        162,
        429,
        743,
        70,
        60,
        556,
        401,
        120,
        477,
        125,
        593,
        124,
        385,
        380,
        36,
        739,
        557,
        467,
        87,
        345,
        90,
        466,
        127,
        236,
        5,
        546,
        94,
        427,
        118,
        206,
        170,
        360,
        261,
        446,
        535,
        542,
        364,
        11,
        92,
        39,
        662,
        267,
        230,
        48,
        594,
        335,
        149,
        169,
        110,
        324,
        49,
        317,
        198,
        18,
        478,
        163,
        508,
        474,
        657,
        661,
        531,
        526,
        219,
        358,
        27,
        580,
        450,
        430,
        221,
        101,
        576,
        741,
        599,
        683,
        398,
        268,
        346,
        737,
        685,
        486,
        628,
        523,
        622,
        93,
        361,
        143,
        615,
        604,
        514,
        24,
        316,
        164,
        64,
        512,
        704,
        123,
        408,
        400,
        653,
        640,
        234,
        678,
        548,
        436,
        83,
        696,
        631,
        207,
        216,
        502,
        319,
        479,
        572,
        152,
        265,
        17,
        453,
        571,
        636,
        190,
        705,
        239,
        472,
        78,
        187,
        266,
        493,
        199,
        506,
        732,
        716,
        396,
        681,
        393,
        247,
        431,
        382,
        373,
        25,
        688,
        736,
        167,
        333,
        642,
        223,
        501,
        246,
        489,
        95,
        100,
        285,
        651,
        578,
        498,
        637,
        713,
        148,
        242,
        102,
        541,
        65,
        173,
        582,
        521,
        494,
        387,
        381,
        334,
        255,
        650,
        281,
        299,
        362,
        658,
        626,
        259,
        623,
        195,
        15,
        605,
        248,
        727,
        371,
        545,
        189,
        4,
        445,
        19,
        274,
        139,
        341,
        156,
        213,
        322,
        428,
        529,
        505,
        725,
        462,
        519,
        641,
        534,
        103,
        670,
        363,
        734,
        260,
        243,
        418,
        338,
        253,
        291,
        370,
        648,
        395,
        256,
        588,
        475,
        166,
        157,
        473,
        283,
        404,
        91,
        159,
        16,
        621,
        188,
        200,
        133,
        312,
        717,
        575,
        201,
        483,
        176,
        192,
        619,
        205,
        694,
        215,
        343,
        625,
        726,
        365,
        50,
        62,
        332,
        403,
        310,
        352,
        724,
        40,
        664,
        720,
        525,
        555,
        375,
        747,
        562,
        315,
        297,
        399,
        563,
        527,
        443,
        668,
        697,
        32,
        714,
        20,
        635,
        728,
        744,
        191,
        296,
        573,
        692,
        518,
        280,
        405,
        214,
        686,
        355,
        72,
        337,
        264,
        468,
        591,
        613,
        353,
        742,
        680,
        539,
        698,
        666,
        511,
        632,
        0,
        354,
        98,
        424,
        204,
        500,
        447,
        464,
        618,
        340,
        131,
        687,
        331,
        740,
        374,
        656,
        695,
        675,
        667,
        624,
        217,
        174,
        440,
        646,
        196,
        412,
        158,
        185,
        41,
        492,
        544,
        237,
        238,
        151,
        655,
        288,
        79,
        528,
        47,
        14,
        676,
        669,
        569,
        456,
        746,
        305,
        684,
        457,
        480,
        710,
        570,
        481,
        702,
        449,
        121,
        293,
        459,
        96,
        476,
        435,
        329,
        595,
        85,
        407,
        497,
        59,
        663,
        347,
        469,
        84,
        313,
        344,
        272,
        13,
        302,
        597,
        644,
        10,
        140,
        52,
        452,
        560,
        104,
        639,
        212,
        292,
        709,
        112,
        269,
        138,
        226,
        579,
        533,
        559,
        155,
        145,
        113,
        465,
        609,
        600,
        284,
        416,
        603,
        722,
        677,
        673,
        499,
        89,
        9,
        379,
        524,
        258,
        208,
        357,
        35,
        366,
        451,
        461,
        712,
        553,
        7,
        175,
        565,
        547,
        106,
        649,
        273,
        321,
        88,
        630,
        510,
        421,
        286,
        488,
        463,
        270,
        203,
        146,
        509,
        634,
        244,
        294,
        652,
        99,
        532,
        367,
        197,
        513,
        660,
        729,
        674,
        730,
        55,
        1,
        606,
        2,
        350,
        183,
        227,
        325,
        598,
        263,
        496,
        77,
        105,
        490,
        6,
        26,
        749,
        617,
        135,
        67,
        193,
        309,
        132,
        503,
        235,
        137,
        590,
        671,
        218,
        592,
        645,
        602,
        327,
        402,
        411,
        448,
        554,
        515,
        700,
        304,
        731,
        718,
        682,
        54,
        394,
        295,
        225,
        516,
        386,
        51,
        422,
        409,
        577,
        530,
        126,
        86,
        262,
        471,
        348,
        485,
        444,
        30,
        607,
        57,
        520,
        384,
        432,
        359,
        22,
        81,
        249,
        289,
        568,
        194,
        679,
        142,
        210,
        232,
        43,
        654,
        585,
        318,
        165,
        308,
        3,
        275,
        34,
        320,
        552,
        439,
        116,
        388,
        271,
        522,
        307,
        44,
        721,
        108,
        437,
        608,
        748,
        665,
        699,
        616,
        706,
        29,
        76,
        517,
        614,
        186,
        134,
        638,
        377,
        245,
        691,
        160,
        426,
        383,
        211,
        178,
        8,
        442,
        303,
        282,
        745,
        330,
        419,
        75,
        63,
        328,
        240,
        71,
        690,
        109,
        154,
        290,
        74,
        80,
        566,
        119,
        311,
        719,
        61,
        279,
        58,
        536,
        415,
        342,
        434,
        38,
        495,
        277,
        287,
        701
    ],
    "Nb of functions evaluations": 200010,
    "Computational time in seconds": 1644.2569460868835,
    "Stopping criterion in evaluations": 200000
}